29 435 -1
0 0 0
0 1 107
0 2 241
0 3 190
0 4 124
0 5 80
0 6 316
0 7 76
0 8 152
0 9 157
0 10 283
0 11 133
0 12 113
0 13 297
0 14 228
0 15 129
0 16 348
0 17 276
0 18 188
0 19 150
0 20 65
0 21 341
0 22 184
0 23 67
0 24 221
0 25 169
0 26 108
0 27 45
0 28 167
1 1 0
1 2 148
1 3 137
1 4 88
1 5 127
1 6 336
1 7 183
1 8 134
1 9 95
1 10 254
1 11 180
1 12 101
1 13 234
1 14 175
1 15 176
1 16 265
1 17 199
1 18 182
1 19 67
1 20 42
1 21 278
1 22 271
1 23 146
1 24 251
1 25 105
1 26 191
1 27 139
1 28 79
2 2 0
2 3 374
2 4 171
2 5 259
2 6 509
2 7 317
2 8 217
2 9 232
2 10 491
2 11 312
2 12 280
2 13 391
2 14 412
2 15 349
2 16 422
2 17 356
2 18 355
2 19 204
2 20 182
2 21 435
2 22 417
2 23 292
2 24 424
2 25 116
2 26 337
2 27 273
2 28 77
3 3 0
3 4 202
3 5 234
3 6 222
3 7 192
3 8 248
3 9 42
3 10 117
3 11 287
3 12 79
3 13 107
3 14 38
3 15 121
3 16 152
3 17 86
3 18 68
3 19 70
3 20 137
3 21 151
3 22 239
3 23 135
3 24 137
3 25 242
3 26 165
3 27 228
3 28 205
4 4 0
4 5 61
4 6 392
4 7 202
4 8 46
4 9 160
4 10 319
4 11 112
4 12 163
4 13 322
4 14 240
4 15 232
4 16 314
4 17 287
4 18 238
4 19 155
4 20 65
4 21 366
4 22 300
4 23 175
4 24 307
4 25 57
4 26 220
4 27 121
4 28 97
5 5 0
5 6 386
5 7 141
5 8 72
5 9 167
5 10 351
5 11 55
5 12 157
5 13 331
5 14 272
5 15 226
5 16 362
5 17 296
5 18 232
5 19 164
5 20 85
5 21 375
5 22 249
5 23 147
5 24 301
5 25 118
5 26 188
5 27 60
5 28 185
6 6 0
6 7 233
6 8 438
6 9 254
6 10 202
6 11 439
6 12 235
6 13 254
6 14 210
6 15 187
6 16 313
6 17 266
6 18 154
6 19 282
6 20 321
6 21 298
6 22 168
6 23 249
6 24 95
6 25 437
6 26 190
6 27 314
6 28 435
7 7 0
7 8 213
7 9 188
7 10 272
7 11 193
7 12 131
7 13 302
7 14 233
7 15 98
7 16 344
7 17 289
7 18 177
7 19 216
7 20 141
7 21 346
7 22 108
7 23 57
7 24 190
7 25 245
7 26 43
7 27 81
7 28 243
8 8 0
8 9 206
8 10 365
8 11 89
8 12 209
8 13 368
8 14 286
8 15 278
8 16 360
8 17 333
8 18 284
8 19 201
8 20 111
8 21 412
8 22 321
8 23 221
8 24 353
8 25 72
8 26 266
8 27 132
8 28 111
9 9 0
9 10 159
9 11 220
9 12 57
9 13 149
9 14 80
9 15 132
9 16 193
9 17 127
9 18 100
9 19 28
9 20 95
9 21 193
9 22 241
9 23 131
9 24 169
9 25 200
9 26 161
9 27 189
9 28 163
10 10 0
10 11 404
10 12 176
10 13 106
10 14 79
10 15 161
10 16 165
10 17 141
10 18 95
10 19 187
10 20 254
10 21 103
10 22 279
10 23 215
10 24 117
10 25 359
10 26 216
10 27 308
10 28 322
11 11 0
11 12 210
11 13 384
11 14 325
11 15 279
11 16 415
11 17 349
11 18 285
11 19 217
11 20 138
11 21 428
11 22 310
11 23 200
11 24 354
11 25 169
11 26 241
11 27 112
11 28 238
12 12 0
12 13 186
12 14 117
12 15 75
12 16 231
12 17 165
12 18 81
12 19 85
12 20 92
12 21 230
12 22 184
12 23 74
12 24 150
12 25 208
12 26 104
12 27 158
12 28 206
13 13 0
13 14 69
13 15 191
13 16 59
13 17 35
13 18 125
13 19 167
13 20 255
13 21 44
13 22 309
13 23 245
13 24 169
13 25 327
13 26 246
13 27 335
13 28 288
14 14 0
14 15 122
14 16 122
14 17 56
14 18 56
14 19 108
14 20 175
14 21 113
14 22 240
14 23 176
14 24 125
14 25 280
14 26 177
14 27 266
14 28 243
15 15 0
15 16 244
15 17 178
15 18 66
15 19 160
15 20 161
15 21 235
15 22 118
15 23 62
15 24 92
15 25 277
15 26 55
15 27 155
15 28 275
16 16 0
16 17 66
16 18 178
16 19 198
16 20 286
16 21 77
16 22 362
16 23 287
16 24 228
16 25 358
16 26 299
16 27 380
16 28 319
17 17 0
17 18 112
17 19 132
17 20 220
17 21 79
17 22 296
17 23 232
17 24 181
17 25 292
17 26 233
17 27 314
17 28 253
18 18 0
18 19 128
18 20 167
18 21 169
18 22 179
18 23 120
18 24 69
18 25 283
18 26 121
18 27 213
18 28 281
19 19 0
19 20 88
19 21 211
19 22 269
19 23 159
19 24 197
19 25 172
19 26 189
19 27 182
19 28 135
20 20 0
20 21 299
20 22 229
20 23 104
20 24 236
20 25 110
20 26 149
20 27 97
20 28 108
21 21 0
21 22 353
21 23 289
21 24 213
21 25 371
21 26 290
21 27 379
21 28 332
22 22 0
22 23 121
22 24 162
22 25 345
22 26 80
22 27 189
22 28 342
23 23 0
23 24 154
23 25 220
23 26 41
23 27 93
23 28 218
24 24 0
24 25 352
24 26 147
24 27 247
24 28 350
25 25 0
25 26 265
25 27 178
25 28 39
26 26 0
26 27 124
26 28 263
27 27 0
27 28 199
28 28 0
